84 66 77 
36 39 69 11 9 4 20 24 82 58 70 
28 99 
65 45 86 91 57 18 
87 89 
56 55 83 
27 53 
26 23 50 85 8 40 29 52 68 31 
5 81 
43 1 63 
92 33 96 48 67 
95 41 
62 64 79 10 59 74 
42 46 97 15 21 30 38 22 73 35 37 60 90 3 12 100 
88 34 17 61 94 25 93 
72 98 13 
75 19 54 7 44 76 78 6 49 51 14 16 47 2 71 32 80 

